Version identifier: 22.1.0.0 | 2022-03-09 | 1a383f8ce
CPXPARAM_Read_DataCheck                          1
CPXPARAM_Threads                                 1
CPXPARAM_TimeLimit                               3600
Tried aggregator 2 times.
MIP Presolve eliminated 736 rows and 93 columns.
MIP Presolve modified 3460 coefficients.
Aggregator did 20 substitutions.
Reduced MIP has 675 rows, 127 columns, and 3424 nonzeros.
Reduced MIP has 82 binaries, 0 generals, 0 SOSs, and 0 indicators.
Presolve time = 0.01 sec. (6.30 ticks)
Found incumbent of value 56.537890 after 0.02 sec. (8.93 ticks)
Probing fixed 6 vars, tightened 10 bounds.
Probing time = 0.00 sec. (1.37 ticks)
Tried aggregator 1 time.
Detecting symmetries...
MIP Presolve eliminated 20 rows and 6 columns.
MIP Presolve modified 104 coefficients.
Reduced MIP has 655 rows, 121 columns, and 3288 nonzeros.
Reduced MIP has 76 binaries, 0 generals, 0 SOSs, and 0 indicators.
Presolve time = 0.01 sec. (2.25 ticks)
Probing time = 0.00 sec. (1.20 ticks)
Clique table members: 412.
MIP emphasis: balance optimality and feasibility.
MIP search method: dynamic search.
Parallel mode: none, using 1 thread.
Root relaxation solution time = 0.00 sec. (1.68 ticks)

        Nodes                                         Cuts/
   Node  Left     Objective  IInf  Best Integer    Best Bound    ItCnt     Gap

*     0+    0                           56.5379       51.6903             8.57%
      0     0       51.6903    25       56.5379       51.6903       59    8.57%
      0     0       51.6903    18       56.5379      Cuts: 34      104    8.57%
      0     0       51.6903    22       56.5379      Cuts: 83      178    8.57%
      0     0       51.6903    11       56.5379       Cuts: 2      190    8.57%
      0     0       51.6903     9       56.5379      Cuts: 31      217    8.57%
*     0+    0                           51.9716       51.6903             0.54%
Detecting symmetries...

Repeating presolve.
Tried aggregator 1 time.
MIP Presolve eliminated 430 rows and 57 columns.
MIP Presolve modified 412 coefficients.
Reduced MIP has 225 rows, 64 columns, and 868 nonzeros.
Reduced MIP has 29 binaries, 0 generals, 0 SOSs, and 0 indicators.
Presolve time = 0.00 sec. (1.26 ticks)
Probing fixed 0 vars, tightened 4 bounds.
Probing time = 0.00 sec. (0.17 ticks)
Tried aggregator 1 time.
Detecting symmetries...
MIP Presolve eliminated 2 rows and 0 columns.
MIP Presolve modified 115 coefficients.
Reduced MIP has 223 rows, 64 columns, and 862 nonzeros.
Reduced MIP has 29 binaries, 0 generals, 0 SOSs, and 0 indicators.
Presolve time = 0.00 sec. (0.68 ticks)
Represolve time = 0.01 sec. (2.47 ticks)
Probing time = 0.00 sec. (0.17 ticks)
Clique table members: 67.
MIP emphasis: balance optimality and feasibility.
MIP search method: dynamic search.
Parallel mode: none, using 1 thread.
Root relaxation solution time = 0.00 sec. (0.89 ticks)

        Nodes                                         Cuts/
   Node  Left     Objective  IInf  Best Integer    Best Bound    ItCnt     Gap

*     0+    0                           51.9716       51.6903             0.54%
      0     0       51.6903    13       51.9716       51.6903      274    0.54%
      0     0       51.6903     8       51.9716      Cuts: 38      282    0.54%
      0     0       51.6903    13       51.9716      Cuts: 30      297    0.54%
      0     0       51.6903     5       51.9716       Cuts: 3      300    0.54%
      0     0       51.6903     9       51.9716       Cuts: 8      307    0.54%
Detecting symmetries...
      0     2       51.6903     9       51.9716       51.6903      307    0.54%
Elapsed time = 0.14 sec. (67.00 ticks, tree = 0.01 MB, solutions = 2)

GUB cover cuts applied:  3
Clique cuts applied:  2
Cover cuts applied:  6
Implied bound cuts applied:  12
Mixed integer rounding cuts applied:  20
Zero-half cuts applied:  2
Gomory fractional cuts applied:  1

Root node processing (before b&c):
  Real time             =    0.14 sec. (67.00 ticks)
Sequential b&c:
  Real time             =    0.01 sec. (7.14 ticks)
                          ------------
Total (root+branch&cut) =    0.15 sec. (74.13 ticks)
